c numero: 65
c nombre: n-50-d-0.3
c densidad: 0.3
p edges 50 369
e 1 7
e 1 15
e 1 16
e 1 19
e 1 20
e 1 21
e 1 24
e 1 31
e 1 32
e 1 44
e 1 46
e 2 4
e 2 5
e 2 6
e 2 13
e 2 15
e 2 16
e 2 17
e 2 18
e 2 23
e 2 26
e 2 27
e 2 29
e 2 32
e 2 33
e 2 35
e 2 36
e 2 39
e 2 40
e 2 43
e 2 47
e 3 6
e 3 13
e 3 15
e 3 16
e 3 20
e 3 22
e 3 23
e 3 24
e 3 33
e 3 35
e 3 39
e 3 40
e 3 44
e 3 47
e 3 48
e 4 11
e 4 16
e 4 17
e 4 20
e 4 23
e 4 25
e 4 27
e 4 28
e 4 31
e 4 32
e 4 36
e 4 40
e 4 43
e 4 44
e 4 47
e 5 7
e 5 16
e 5 20
e 5 22
e 5 23
e 5 32
e 5 34
e 5 36
e 5 40
e 5 44
e 5 46
e 5 47
e 5 48
e 5 49
e 5 50
e 6 9
e 6 15
e 6 16
e 6 17
e 6 18
e 6 21
e 6 22
e 6 23
e 6 27
e 6 28
e 6 33
e 6 36
e 6 39
e 6 45
e 6 47
e 6 49
e 7 12
e 7 14
e 7 19
e 7 28
e 7 36
e 7 38
e 7 45
e 7 46
e 8 10
e 8 11
e 8 18
e 8 19
e 8 25
e 8 36
e 8 38
e 8 41
e 8 42
e 8 44
e 8 46
e 8 47
e 8 50
e 9 11
e 9 12
e 9 13
e 9 15
e 9 17
e 9 21
e 9 25
e 9 27
e 9 28
e 9 30
e 9 39
e 9 43
e 9 44
e 9 45
e 9 46
e 9 47
e 9 48
e 10 12
e 10 18
e 10 20
e 10 21
e 10 23
e 10 28
e 10 29
e 10 32
e 10 33
e 10 36
e 10 37
e 10 40
e 10 41
e 10 43
e 10 45
e 10 49
e 11 13
e 11 24
e 11 31
e 11 32
e 11 33
e 11 35
e 11 38
e 11 40
e 11 41
e 11 42
e 11 50
e 12 16
e 12 20
e 12 28
e 12 30
e 12 32
e 12 33
e 12 37
e 12 39
e 12 42
e 12 46
e 13 18
e 13 20
e 13 29
e 13 32
e 13 37
e 13 41
e 13 42
e 13 49
e 14 15
e 14 22
e 14 23
e 14 24
e 14 26
e 14 34
e 14 35
e 14 37
e 14 42
e 14 47
e 15 19
e 15 22
e 15 23
e 15 26
e 15 32
e 15 34
e 15 39
e 15 40
e 15 42
e 15 43
e 15 44
e 16 23
e 16 24
e 16 25
e 16 31
e 16 32
e 16 33
e 16 42
e 16 45
e 16 46
e 16 47
e 16 50
e 17 24
e 17 30
e 17 31
e 17 32
e 17 35
e 17 40
e 17 42
e 17 43
e 17 50
e 18 19
e 18 20
e 18 23
e 18 26
e 18 29
e 18 31
e 18 32
e 18 33
e 18 34
e 18 36
e 18 37
e 18 46
e 18 47
e 18 49
e 19 22
e 19 23
e 19 24
e 19 26
e 19 30
e 19 38
e 19 46
e 19 49
e 19 50
e 20 34
e 20 38
e 20 39
e 20 46
e 20 48
e 20 49
e 21 31
e 21 38
e 21 41
e 21 43
e 21 45
e 22 26
e 22 30
e 22 33
e 22 41
e 22 43
e 22 44
e 22 45
e 22 47
e 22 48
e 22 49
e 23 26
e 23 28
e 23 31
e 23 33
e 23 34
e 23 38
e 23 39
e 23 40
e 23 44
e 23 45
e 23 46
e 23 48
e 23 49
e 24 26
e 24 27
e 24 28
e 24 31
e 24 32
e 24 33
e 24 36
e 24 40
e 24 43
e 25 28
e 25 30
e 25 33
e 25 35
e 25 36
e 25 38
e 25 41
e 25 43
e 26 32
e 26 33
e 26 35
e 26 40
e 26 49
e 27 29
e 27 30
e 27 31
e 27 35
e 27 37
e 27 41
e 27 47
e 28 31
e 28 36
e 28 42
e 28 49
e 29 35
e 29 42
e 29 43
e 30 32
e 30 33
e 30 34
e 30 37
e 30 38
e 30 40
e 30 41
e 30 45
e 30 48
e 30 50
e 31 33
e 31 35
e 31 40
e 31 47
e 32 36
e 32 43
e 32 49
e 32 50
e 33 37
e 33 38
e 33 44
e 33 46
e 34 38
e 34 41
e 34 45
e 34 46
e 34 47
e 35 37
e 35 38
e 35 45
e 36 42
e 36 43
e 36 46
e 36 49
e 37 39
e 37 40
e 37 45
e 37 46
e 37 48
e 37 49
e 38 47
e 38 48
e 39 41
e 39 44
e 39 45
e 39 47
e 39 48
e 39 49
e 40 44
e 40 48
e 40 50
e 41 45
e 41 48
e 42 47
e 43 50
e 44 48
e 45 48
e 46 48
e 46 49
e 47 49
